1000 1694
1 2 3 4 5 6 7 8 9 10
0 4 11 12 13 14 15 16 17 18 19 20 21 22 23 24 25 26 27 28 29 30 31 32 33 34 35 36 37 38 39 40 41 42 43 44 45 46 47 48
0 4 8 17 26 29 49 50 51 52 53 54 55 56 57 58 59 60 61 62 63 64 65 66 67 68 69 70 71 72 73 74 75 76 77 78 79 80 81 82 83 84 85 86 87 88 89 90 91 92 93 94 95 96 97 98 99 100 101 102 103 104 105 106 107 108 109 110 111 112 113 114 115 116 117 118 119 120 121 122 123 124 125 126 127 128 129 130 131 132 133 134 135 136 137 138 139 140 141 142 143 144 145 146 147 148 149 150 151 152 153 154 155 156 157 158 159 160 161 162 163 164 165 166 167 168 169 170 171 172 173 174 175 176 177 178 179
0 24 36 146 180 181 182 183 184 185 186 187 188 189 190 191 192 193 194 195 196
0 1 2 5 8 10 14 17 22 24 26 32 36 40 48 52 59 64 77 82 85 88 90 95 102 108 115 118 120 124 128 145 147 154 155 161 162 177 197 198 199 200 201 202 203 204 205 206 207 208 209 210 211 212 213 214 215 216 217 218 219 220 221 222 223 224 225 226 227 228 229 230 231 232 233 234 235 236 237 238 239 240 241 242 243 244 245 246 247 248 249 250 251 252 253 254 255 256 257 258 259 260 261 262 263 264 265 266 267 268 269 270 271 272 273 274 275 276 277 278 279 280 281 282 283 284 285 286 287 288 289 290 291 292 293 294 295 296 297 298 299 300 301 302 303 304 305 306 307 308 309 310 311 312 313 314 315 316 317 318 319 320 321 322 323 324 325 326 327 328 329 330 331 332 333 334 335 336 337 338 339 340 341 342 343 344 345 346 347 348 349 350 351 352 353 354 355 356 357 358 359 360 361 362 363 364 365 366 367 368 369 370 371 372 373 374 375 376 377 378 379 380 381 382 383 384 385 386 387 388 389 390 391 392 393 394 395 396 397 398 399 400 401 402 403 404 405 406 407 408 409 410 411 412 413 414 415 416 417 418 419 420 421 422 423 424 425 426 427 428 429 430 431 432 433 434 435 436 437 438 439 440 441 442 443 444 445 446 447 448 449 450 451 452 453 454 455 456 457 458 459 460 461 462 463 464 465 466 467 468 469 470 471 472 473 474 475 476 477 478 479 480 481 482 483 484 485 486 487 488 489 490 491 492 493 494 495 496 497 498 499 500 501 502 503 504 505 506 507 508 509 510 511 512 513 514 515 516 517 518 519 520 521 522 523 524 525 526 527 528 529 530 531 532 533 534 535 536 537 538 539 540 541 542 543 544 545 546 547 548 549 550 551 552 553 554 555 556 557 558 559 560 561 562 563 564 565 566 567 568 569 570 571 572 573 574 575 576 577 578 579 580 581 582 583 584 585 586 587 588 589 590 591 592 593 594 595 596 597 598 599 600 601 602 603 604 605 606 607 608 609 610 611 612 613 614 615 616 617 618 619 620 621 622 623 624 625 626 627 628 629 630 631 632 633 634 635 636 637 638 639 640 641 642 643 644 645 646 647 648 649 650 651 652 653 654 655 656 657 658 659 660 661 662 663 664 665 666 667 668 669 670 671 672 673 674 675 676 677 678 679 680 681 682 683 684 685 686 687 688 689 690 691 692 693 694 695 696 697 698 699 700 701 702 703 704 705 706 707 708 709 710 711 712 713 714 715 716 717 718 719 720 721 722 723 724 725 726 727 728 729 730 731 732 733 734 735 736 737 738 739 740 741 742 743 744 745 746 747 748 749 750 751 752 753 754 755 756 757 758 759 760 761 762 763 764 765 766 767 768 769 770 771 772 773 774 775 776 777 778 779 780 781 782 783 784 785 786 787 788 789 790 791 792 793 794 795 796 797 798 799 800 801 802 803 804 805 806 807 808 809 810 811 812 813 814 815 816 817 818 819 820 821 822 823 824 825 826 827 828 829 830 831 832 833 834 835 836 837 838 839 840 841 842 843 844 845 846 847 848 849 850 851 852 853 854 855 856 857 858 859 860 861 862 863 864 865 866 867 868 869 870 871 872 873 874 875 876 877 878 879 880 881 882 883 884 885 886 887 888 889 890 891 892 893 894 895 896 897 898 899 900 901 902 903 904 905 906 907 908 909 910 911 912 913 914 915 916 917 918 919 920 921 922 923 924 925 926 927 928 929 930 931 932 933 934 935 936 937 938 939 940 941 942 943 944 945 946 947 948 949 950 951 952 953 954 955 956 957 958 959 960 961 962
0 4 16 19 21 28 48 88 444 717 963 964 965 966 967 968 969 970 971 972 973 974 975 976 977 978 979 980 981 982 983 984 985 986 987 988 989 990 991 992 993 994 995 996
0 52 106 476 809 973 997 998 999
0 30 44 83 200
0 2 4 264 511
0 10 17 52 108 137 154 156 162 286 326 346 379 422 444 510 535 610 677 709 711 714 749 792 825 962
0 4 9 11 26 102 126 156 188 251 295 343 345 420 565 596 717 728 795 937
1 10 32 545 629
1
1 88 154 958
1 4 40 46 78 115 162 190 198 203 251 311 329 489 574 629 680 728 835 837 879 893 952 957
1
1 5 25 82 154 162 378 534 540 608 814 906
1 2 4 9 19 24 30 39 44 156 534 690 728
1 896
1 5 17
1
1 5 51 54 84 85 145 156 162 203 340 345 511 728 758 774 837 952
1 4 40 46 60 478 629 814
1
1 3 4 17 30 39 48 51 85 121 127 156 183 193 303 346 420 545 570 610 795
1 16 511 942
1 2 4 10 29 59 60 260 343 455 534 659 680 922
1 608
1 5 30 44 51 52 118 128 161 162 196 198 203 345 352 410 444 509 534 537 546 574 585 706 717 814 889 890 895 906 942 986
1 2 26 44 51 59 81 82 88 108 126 127 156 244 455 534 629 893 973 982
1 7 17 24 28 40 46 48 51 121 154 156 378 534 545 680 814 974
1
1 4 11 68 407 574
1 378 458 574 639 893 956
1 534
1
1 3 4 658 956
1 38
1 37
1 17 24 121 378
1 4 14 22 30 64 145 161 469 474 639 728 758 879 929 952 955
1 96 210 242 410 973
1 154 376
1 545 790
1 7 17 28 29 54 154 973
1
1 14 22 30 102 196 250 534
1
1 4 5 24 30 68 83 156 200 376 378 398 420 444 534 545 600 629 680 709 741 758 795 814 906 966
2 60 85 545
2 497 598 953
2 21 24 28 29 30 121 156 189 243 534 648 728 749 902 973 977
2 4 6 9 28
2
2 21 44 60 420 534 574 918
2
2
2 144
2
2 4 26 29 88 128 227 511 534 658
2 22 26 49 54 62 102 128 340 444 460
2 68
2 60
2 74 137 189 728
2 4 40
2 125 630 805
2
2
2 32 48 61 316 629
2 168
2
2 667
2 721
2
2 63 189
2
2 902
2 4 156 534
2 14 88 108 156 198 489 534 690 728 952
2 149
2
2 29
2 4 16 29
2 7 48 542 629 893
2 21 156 969
2 4 21 24 49 717 995
2 149 179
2
2 4 5 13 29 59 78 156 545 741 957
2 570
2 4 162
2
2
2 125
2
2 4 146 153
2 41 832 973 982
2
2 179
2
2
2
2 4 10 46 60 629 842
2
2
2
2 6 494
2 534
2 4 9 29 78 510 512 534 558 596
2 573
2 179
2
2
2
2
2 4 14 284
2
2
2 4 28 221
2
2 4 217 833
2 24 30 39 51 154 444 513 534 986
2
2
2 4
2 65 93 159 229 239 255 805
2 10 29 156 717 858 896 958 966
2 24 29 378 514 789 866 974
2 4 28 59 60 534 680
2
2 159
2 669 973 982
2
2
2
2 740
2 537 780
2 9 63 156 173 455 534 680 780 791 869 974
2
2
2
2 811
2
2
2 57 728 795
2 4 21 40 198 728
2 3 95 183 193 546 600 741
2 4
2
2 79 86 179 953
2
2 358 631
2 540
2 95 294
2 4 9 13 16 30 42 44 121 525 545 669 690 717 966 986
2 4 717
2 9 10 17 21 24 29 30 48 51 77 78 84 88 126 137 158 318 343 444 464 534 545 596 709 795
2
2 156
2 125 130
2
2 4 28 40 196 345 420 430 588 728 958
2 4 9 14 16 21 28 90 570 982
2
2
2
2
2
2 69
2
2
2
2
2 137
2
2
2
2 4
2
2 86 98 110 149 475 683 705
3 181
3 180 185 189 193 195
3 191 192
3 24 146 193
3
3 181 192 781
3
3 196
3 10
3 51 63 74 181 192 193 195 340 648
3 14 327 728 758 796 952
3 182
3 182 185 189 193 195 973
3 24 146 181 183 189 192 195 588 610
3
3 181 189 192 193 588
3 28 46 161 187 320 458 481 509 532 542 639 952 959 979
4 363
4 14 28 78 145 329 728 952
4
4 7 48 820
4
4
4 14 21 28 728
4
4
4
4 562
4
4
4 41
4
4 376
4
4
4
4 744
4 120 807
4
4
4
4 118
4 391 514
4
4
4
4 625
4 59 268 379 491 511
4
4 125 306 598
4
4
4
4
4
4
4 546 975
4
4
4 125
4
4
4 41
4 51
4 29 789
4
4 468
4 728
4
4
4 46
4 10 14
4
4
4
4 125
4 728
4
4
4
4 26
4
4
4
4 8 680
4
4
4
4 227
4
4 774
4
4
4
4
4
4
4
4
4
4 521
4
4
4
4 115
4 728
4 9
4
4
4 340
4
4
4 885
4
4 153 755
4 10
4
4
4
4 598
4
4
4 458
4 24 797
4
4 717
4 229 762
4
4
4
4
4 14 444
4
4
4
4
4 68
4
4 156
4
4 196 688
4
4
4
4
4
4 9
4 190
4
4 14 198 728
4
4
4
4
4
4
4 847
4
4 728
4
4 21 60 189 289 973
4
4
4 10 26 156
4
4 10 21 28 161
4 9 24
4
4
4 707
4 625
4
4 28
4
4
4
4
4
4 151 443
4
4
4
4 534
4 197
4
4
4 714
4
4
4
4
4
4
4
4
4
4 42 48 212 545
4
4 16 30 33 39 48 127 506
4 9 227
4
4
4
4
4
4 905
4
4
4
4
4
4 222
4
4
4 717
4
4
4
4 48
4
4
4
4
4
4
4
4
4 32 525
4
4
4 28 41 525
4
4
4
4
4
4
4
4
4
4 10 24 48 54 161 525
4
4 9
4
4
4
4
4 787
4
4
4 161
4
4
4
4
4
4 648
4
4
4
4
4
4
4 358
4 5 9 28 48 60 121 156 311 511 629 958 973
4 482
4
4
4
4 706
4
4
4
4
4
4 26 29 137
4
4
4 33 196 302
4
4 60
4
4
4 565
4 156
4
4
4
4 246
4 40 629
4
4
4
4 762 942
4 40
4 179
4 6
4
4 22
4
4 997
4 196
4 445
4
4
4
4
4
4
4 14 78 859
4
4 227 728
4
4
4 106
4
4
4 50 717
4
4
4
4
4
4
4
4
4 378 534
4
4
4 28 196
4 9 108 629
4 8 21 25 59 227 444
4 108
4 121
4 127 222
4
4
4
4 819
4
4
4 280 793
4
4
4
4 154 407 410 420 895
4
4
4
4 577
4
4
4 196
4
4 16 17 26 28 29 30 34 46 48 51 54 59 77 78 107 108 121 128 137 156 362 506 974 975 989
4 9 895
4
4 28 136
4
4
4 16 152 708
4 657
4 83 196 896 974
4
4
4 11 24 30 43 48 49 88 154 156 376 795
4 28 146 236 975
4
4
4
4
4
4
4
4
4
4
4
4 108 796
4
4
4
4 207
4
4
4 10 463
4
4
4
4
4 24 89 162 982 986
4
4
4 109
4 14 28 32 33 54
4
4
4 529
4
4
4
4
4 880
4
4
4 28
4
4
4 161 193 195 997
4
4
4
4
4 854
4
4 962
4 10 108 156
4
4 50 229 299
4
4 48 146
4
4
4
4
4
4
4
4 16 27 789
4
4 9 24 193
4
4
4
4
4
4
4
4
4
4
4
4 820
4
4
4 226 350 836
4
4
4
4 11 14 22 29 48 68 83 102 444 469 510
4 65
4 151
4
4
4
4
4
4
4
4 33 40 196 728
4
4
4
4
4
4
4
4
4 51 189 436 789
4
4
4 818
4
4
4
4
4
4 541
4 36 59
4 26 750
4
4
4
4
4
4
4
4 71
4
4 131 154 819
4 746
4
4 674
4
4 672
4
4
4 9
4
4 805
4 14 26 30 48 128 137 264 977
4
4
4 179
4
4
4
4 917
4 320 728
4
4 17 78 154 728
4
4 952
4
4
4
4
4
4
4
4
4
4
4
4
4 179
4 28 449
4 349
4 540
4 9 48 156 882 973
4
4 9
4
4
4 9 366
4
4
4 5 10 28 85 126 154 155 305 394 497 814
4
4 804
4
4 72
4
4
4
4
4 965
4
4 10 14 17 21 40 51 63 78 144 145 161 190 198 203 247 256 285 329 338 491 639 688 690 758 762 837 893 902 957
4 805
4
4 814
4
4
4
4
4
4
4
4
4 135
4 48 88 146
4
4 918
4 216 752
4
4 670
4
4 776
4 9 51
4 659
4
4 744 805
4
4
4 294
4
4
4 21 40 48 190 728
4
4
4
4 306 473 728
4
4
4
4
4
4
4
4 898
4
4 935
4
4 21 270
4
4 748
4
4
4
4 136 137
4 185
4
4
4
4
4
4 427
4
4 127 244 608 648 974 986
4 43
4 137
4 9
4 521
4
4 10 24 48 144 156 545
4 190 558
4 303
4
4
4
4 969
4
4
4 719
4 65 125 679 729 752
4
4 217
4
4 6
4
4 141
4 830
4
4 16 22 28 30 48 717 731
4
4 818
4
4 651 816
4 518 669
4 200 622
4
4
4
4
4 9
4
4
4
4
4 812
4
4 96
4 120
4
4 14
4 625
4 14 21 728
4
4
4
4
4 102
4
4
4
4
4 336
4
4
4
4
4
4
4 593
4
4
4
4 126
4 489
4
4
4
4
4
4
4 127
4
4
4 137
4
4
4
4
4
4
4
4
4
4 14 40
4 582
4
4 709
4
4
4 292
4
4
4
4 28
4 28 973
4
4
4 14 29 33 83 728
4
4 28 525 535
4 18 126 542 971 979
4
4 770
4
4
4
4 51 76 728
4
4
4 385
4 16 28 48
4
4
4
4
4
4
4
4
4
4
4 687
4 54 743
4
4
4
4 26
4
4
4
4
4
4
4 40
4
4
4
4
4
4 772
4
4 10
4
4
4
4
4 25 28 473
4
4
4
4
4
4
4
4
4
4 14 21 40 78 190 196 198 692
4 50 149
4
4 40
4 33 36
4 14 88 728
4 13 126 161 444
4 196
4
4
4 9 595
5 974 984
5
5 726
5 48 126 154
5
5
5 84 801
5
5 896 983
5
5 6 29 41 44 51 96 131 192 340 444 709 890 982
5 30 127 137 534 542 789 963 984
5 236 534 546
5
5 51 680
5
5 196 896
5
5
5 29 96 131 162 570 973
5 971
5 963 974
5
5 28 121 154 570 789
5
5 992
5 534
5 992
5
5 988 990
5
5
5 85
5
6 480 588
6
6
